p cnf 140 456
c t mc
-3 -1 0
-3 -2 0
1 2 3 0
-3 -4 -5 0
3 4 -5 0
-3 4 5 0
3 -4 5 0
-5 4 -6 0
5 -4 -6 0
-5 -4 6 0
5 4 6 0
-6 3 -7 0
6 -3 -7 0
-6 -3 7 0
6 3 7 0
-4 -9 -10 0
4 9 -10 0
-4 9 10 0
4 -9 10 0
12 10 0
12 11 0
-10 -11 -12 0
13 8 0
13 -12 0
-8 12 -13 0
-14 3 0
-14 13 0
-3 -13 14 0
7 14 -15 0
-7 -14 -15 0
7 -14 15 0
-7 14 15 0
1 16 -17 0
-1 -16 -17 0
1 -16 17 0
-1 16 17 0
1 18 -19 0
-1 -18 -19 0
1 -18 19 0
-1 18 19 0
-17 -19 -20 0
17 19 -20 0
-17 19 20 0
17 -19 20 0
-23 21 0
-23 22 0
-21 -22 23 0
25 -23 0
25 -24 0
23 24 -25 0
20 -25 -26 0
-20 25 -26 0
20 25 26 0
-20 -25 26 0
27 -15 0
27 26 0
15 -26 -27 0
-16 -28 -29 0
16 28 -29 0
-16 28 29 0
16 -28 29 0
30 -10 0
30 29 0
10 -29 -30 0
-31 6 0
-31 8 0
-6 -8 31 0
30 31 -32 0
-30 -31 -32 0
30 -31 32 0
-30 31 32 0
34 33 0
34 2 0
-33 -2 -34 0
4 -35 -36 0
-4 35 -36 0
4 35 36 0
-4 -35 36 0
-37 -36 0
-37 16 0
36 -16 37 0
38 34 0
38 -37 0
-34 37 -38 0
39 32 0
39 -38 0
-32 38 -39 0
-40 27 0
-40 39 0
-27 -39 40 0
41 24 0
41 -12 0
-24 12 -41 0
42 -41 0
42 -28 0
41 28 -42 0
17 8 -43 0
-17 -8 -43 0
17 -8 43 0
-17 8 43 0
-1 43 -44 0
1 -43 -44 0
-1 -43 44 0
1 43 44 0
10 -45 -46 0
-10 45 -46 0
10 45 46 0
-10 -45 46 0
44 -46 -47 0
-44 46 -47 0
44 46 47 0
-44 -46 47 0
46 -48 -49 0
-46 48 -49 0
46 48 49 0
-46 -48 49 0
47 -49 -50 0
-47 49 -50 0
47 49 50 0
-47 -49 50 0
-53 -35 0
-53 -10 0
35 10 53 0
-24 11 -54 0
24 -11 -54 0
-24 -11 54 0
24 11 54 0
-55 53 0
-55 -54 0
-53 54 55 0
56 52 0
56 -55 0
-52 55 -56 0
57 56 0
57 -46 0
-56 46 -57 0
57 9 -58 0
-57 -9 -58 0
57 -9 58 0
-57 9 58 0
51 -58 -59 0
-51 58 -59 0
51 58 59 0
-51 -58 59 0
-60 33 -61 0
60 -33 -61 0
-60 -33 61 0
60 33 61 0
62 -61 0
62 23 0
61 -23 -62 0
63 -59 0
63 -62 0
59 62 -63 0
-2 -8 -64 0
2 8 -64 0
-2 8 64 0
2 -8 64 0
65 63 0
65 64 0
-63 -64 -65 0
-66 50 0
-66 -65 0
-50 65 66 0
-42 -66 -67 0
42 66 -67 0
-42 66 67 0
42 -66 67 0
-68 21 0
-68 -48 0
-21 48 68 0
69 44 0
69 -11 0
-44 11 -69 0
70 18 0
70 -69 0
-18 69 -70 0
-71 -6 0
-71 -46 0
6 46 71 0
72 -17 0
72 -3 0
17 3 -72 0
28 54 -73 0
-28 -54 -73 0
28 -54 73 0
-28 54 73 0
-74 72 0
-74 73 0
-72 -73 74 0
-54 53 -75 0
54 -53 -75 0
-54 -53 75 0
54 53 75 0
76 -74 0
76 -75 0
74 75 -76 0
77 -71 0
77 -76 0
71 76 -77 0
-1 -8 -78 0
1 8 -78 0
-1 8 78 0
1 -8 78 0
79 14 0
79 -78 0
-14 78 -79 0
80 -77 0
80 -79 0
77 79 -80 0
70 -80 -81 0
-70 80 -81 0
70 80 81 0
-70 -80 81 0
13 -82 -83 0
-13 82 -83 0
13 82 83 0
-13 -82 83 0
84 41 0
84 -4 0
-41 4 -84 0
-85 -83 0
-85 -84 0
83 84 85 0
86 28 0
86 17 0
-28 -17 -86 0
87 85 0
87 86 0
-85 -86 -87 0
-88 -81 0
-88 87 0
81 -87 88 0
-89 -68 0
-89 88 0
68 -88 89 0
-90 -37 0
-90 -13 0
37 13 90 0
-90 -14 -91 0
90 14 -91 0
-90 14 91 0
90 -14 91 0
93 -92 0
93 6 0
92 -6 -93 0
94 -93 0
94 -14 0
93 14 -94 0
95 -9 0
95 -94 0
9 94 -95 0
-56 43 -96 0
56 -43 -96 0
-56 -43 96 0
56 43 96 0
-95 96 -97 0
95 -96 -97 0
-95 -96 97 0
95 96 97 0
91 97 -98 0
-91 -97 -98 0
91 -97 98 0
-91 97 98 0
-99 89 0
-99 98 0
-89 -98 99 0
74 23 -100 0
-74 -23 -100 0
74 -23 100 0
-74 23 100 0
-101 -56 0
-101 100 0
56 -100 101 0
-102 101 0
-102 53 0
-101 -53 102 0
21 -9 -103 0
-21 9 -103 0
21 9 103 0
-21 -9 103 0
-104 103 0
-104 -74 0
-103 74 104 0
105 56 0
105 -35 0
-56 35 -105 0
106 -105 0
106 -72 0
105 72 -106 0
107 104 0
107 -106 0
-104 106 -107 0
102 107 -108 0
-102 -107 -108 0
102 -107 108 0
-102 107 108 0
-109 44 0
-109 -6 0
-44 6 109 0
105 17 -110 0
-105 -17 -110 0
105 -17 110 0
-105 17 110 0
109 110 -111 0
-109 -110 -111 0
109 -110 111 0
-109 110 111 0
112 108 0
112 111 0
-108 -111 -112 0
113 -105 0
113 -56 0
105 56 -113 0
-114 -112 0
-114 -113 0
112 113 114 0
115 100 0
115 11 0
-100 -11 -115 0
116 12 0
116 13 0
-12 -13 -116 0
-117 -29 0
-117 116 0
29 -116 117 0
-118 -46 0
-118 -20 0
46 20 118 0
-119 8 0
-119 3 0
-8 -3 119 0
120 -90 0
120 119 0
90 -119 -120 0
121 -48 0
121 -37 0
48 37 -121 0
122 -120 0
122 121 0
120 -121 -122 0
123 -118 0
123 -122 0
118 122 -123 0
124 -117 0
124 -123 0
117 123 -124 0
-125 -6 0
-125 -9 0
6 9 125 0
-126 125 0
-126 -93 0
-125 93 126 0
127 -20 0
127 14 0
20 -14 -127 0
-128 126 0
-128 -127 0
-126 127 128 0
-129 124 0
-129 128 0
-124 -128 129 0
-130 -115 0
-130 -129 0
115 129 130 0
54 -3 -131 0
-54 3 -131 0
54 3 131 0
-54 -3 131 0
-132 130 0
-132 131 0
-130 -131 132 0
133 114 0
133 -132 0
-114 132 -133 0
-12 28 -134 0
12 -28 -134 0
-12 -28 134 0
12 28 134 0
-135 -44 0
-135 92 0
44 -92 135 0
136 134 0
136 -135 0
-134 135 -136 0
-133 -136 -137 0
133 136 -137 0
-133 136 137 0
133 -136 137 0
-99 137 -138 0
99 -137 -138 0
-99 -137 138 0
99 137 138 0
139 -67 0
139 138 0
67 -138 -139 0
140 -40 0
140 139 0
40 -139 -140 0
-11 -78 17 0
-6 -21 -47 44 -27 -108 -83 0
41 -5 -69 -97 0
60 -18 122 0
-37 -137 89 -110 -27 21 88 -72 -84 0
88 127 -25 -79 -4 -120 48 38 0
124 133 -104 -1 93 0
-28 34 -107 -95 10 0
-60 93 133 -5 -52 125 -26 20 -71 0
-20 -11 92 85 -13 -28 52 -134 59 109 0
44 -86 -18 111 63 22 52 135 54 69 0
104 -108 109 -5 26 8 97 89 7 19 0
86 -87 -60 0
-32 64 112 94 59 0
-58 -57 33 -22 54 -66 0
127 86 69 -9 0
-20 49 124 136 116 45 106 -11 113 14 0
16 -10 64 0
-32 77 8 -58 -103 0
-27 -9 -34 -33 -24 -57 6 -17 41 0
12 -44 -26 0
135 -115 -89 -6 -22 0
107 87 136 135 0
124 -41 18 59 -96 0
138 -113 -93 -123 0
-66 -137 62 -52 -122 -78 -93 0
33 -94 76 -123 63 0
-106 26 51 107 -24 -85 28 -17 -91 52 0
-19 -39 41 0
79 49 52 16 102 93 23 68 20 -66 0
129 80 52 26 18 0
91 85 69 17 -30 -61 -75 126 60 104 0
114 134 98 1 0
86 9 101 5 -135 -110 0
75 -93 -37 26 42 0
-57 -91 -68 -122 -75 19 -17 -2 0
43 -70 -15 0
117 80 24 109 92 126 75 111 76 51 0
23 80 88 0
130 69 132 102 97 114 0
130 120 -15 13 127 92 0
-83 139 34 -52 54 0
6 -68 88 100 0
-133 67 -23 0
-8 108 -71 -84 0
11 118 125 0
-25 -13 56 -62 -88 29 0
30 -63 96 -61 -133 0
54 -7 133 107 0
138 40 -57 -92 0
81 -110 2 0
67 -98 -137 13 -46 0
-91 30 -116 108 -106 13 -136 0
-138 112 -7 -54 103 -71 0
108 118 -24 42 -130 -58 -14 -115 -31 -56 0
138 27 -65 56 42 108 55 -123 85 0
140 0
